p tw 612 707
1 2
2 113
3 14
4 5
5 6
5 29
6 7
7 8
7 22
8 9
9 10
9 35
10 11
11 12
11 443
12 13
13 15
13 44
14 25
15 16
16 17
16 39
17 539
18 19
19 20
20 21
21 584
22 23
23 24
24 584
25 36
26 27
27 28
28 584
29 30
30 31
31 44
32 33
33 34
34 44
35 37
36 47
37 38
38 44
39 40
40 41
41 44
42 43
43 44
44 45
45 46
46 48
47 58
48 49
48 55
49 50
50 51
51 52
52 53
53 54
53 44
54 554
55 56
56 57
57 59
58 69
59 60
60 61
61 62
62 63
62 64
63 64
64 65
65 66
65 94
66 67
67 68
68 70
69 80
70 71
70 73
71 72
72 105
73 74
74 75
75 76
75 94
76 77
77 78
78 79
79 81
80 91
81 82
81 157
82 83
83 84
83 90
84 85
85 86
85 90
86 87
87 88
88 89
89 146
90 92
91 102
91 554
92 93
93 105
94 95
95 96
95 111
96 97
97 98
97 111
98 99
99 100
100 101
101 103
101 105
102 114
103 104
104 105
104 111
105 106
106 107
107 108
108 109
109 110
110 111
110 554
111 112
112 115
113 224
114 125
115 116
116 117
117 118
118 119
119 120
120 121
121 122
122 123
123 124
124 126
124 127
125 136
126 127
126 129
127 128
128 129
128 554
129 130
130 131
130 157
131 132
132 133
133 134
133 157
134 135
134 157
135 137
136 147
136 522
137 138
138 139
139 140
140 141
141 142
142 143
143 144
144 145
145 146
146 148
147 158
148 149
149 150
150 151
151 152
152 153
153 154
154 155
155 156
156 129
157 159
158 169
159 160
159 549
160 161
161 162
161 163
162 163
163 164
164 165
164 173
165 166
166 167
167 168
168 170
169 180
170 171
171 172
172 182
173 174
174 175
175 176
176 177
177 178
178 179
179 181
180 191
181 182
182 183
183 184
184 549
185 186
186 187
187 188
188 189
188 196
189 190
190 192
191 202
192 193
193 194
194 195
194 185
195 554
196 197
197 198
198 199
199 200
200 201
201 203
202 213
203 204
203 205
204 205
205 206
206 207
207 208
208 209
209 210
210 211
211 212
212 214
213 225
214 215
215 216
216 217
216 306
217 218
218 219
219 220
219 306
220 221
221 222
221 228
222 223
223 226
223 228
224 335
225 236
226 227
227 249
228 229
229 230
230 231
230 233
231 232
232 249
233 234
234 235
235 237
235 239
236 247
237 238
238 239
238 242
239 240
240 241
241 249
242 243
243 244
244 245
245 246
246 248
246 306
247 258
248 249
249 250
250 251
251 252
252 253
253 254
254 255
255 256
255 296
256 296
256 257
256 262
256 266
256 276
256 287
256 306
257 259
258 269
259 260
260 261
261 296
262 263
263 264
264 265
265 296
266 267
267 268
268 270
269 280
270 271
271 272
272 273
273 274
274 275
275 296
276 277
277 278
278 279
279 281
280 291
281 282
282 283
283 284
284 285
285 286
286 296
287 288
288 289
289 290
290 292
291 302
292 293
293 294
294 295
295 296
296 297
297 298
298 299
299 300
300 301
301 303
302 313
303 304
304 305
305 215
306 307
307 308
308 309
309 310
309 554
310 311
310 549
311 312
312 314
313 324
314 315
315 316
316 317
317 318
318 319
319 320
320 321
321 322
322 323
323 325
323 332
324 336
325 326
326 327
327 328
328 329
329 330
330 331
331 341
332 333
333 334
334 337
335 446
336 347
337 338
338 339
339 340
340 341
341 342
342 343
343 549
344 345
345 346
346 348
347 358
348 349
349 350
350 457
351 352
352 353
353 354
354 355
355 356
356 357
357 359
358 369
359 360
359 363
360 361
361 362
362 365
363 364
364 365
365 366
366 367
367 368
368 370
369 380
370 371
371 372
371 374
372 373
373 374
373 382
374 375
375 376
376 377
377 378
378 379
379 381
380 391
381 382
382 383
383 384
384 385
385 386
386 387
387 388
387 440
388 389
388 554
389 390
390 392
390 425
391 402
392 393
393 394
393 397
394 395
395 396
395 430
396 432
397 398
398 399
399 400
400 401
401 403
402 413
402 447
403 404
404 405
404 425
405 406
406 407
407 408
408 409
409 410
410 411
411 412
412 414
412 420
413 424
414 415
415 416
416 417
417 418
418 419
419 408
420 421
421 422
422 423
423 432
424 435
425 426
426 427
427 428
428 429
429 432
430 431
431 432
432 433
433 434
434 436
435 447
436 437
437 438
438 439
439 384
440 441
441 442
442 457
443 444
444 445
445 448
446 557
446 580
447 458
448 449
449 450
450 451
450 457
451 452
452 453
453 454
454 455
455 456
455 445
456 554
457 459
458 469
459 460
460 461
461 462
462 463
463 464
464 465
464 483
465 466
466 467
467 468
468 470
469 480
470 471
471 472
472 473
473 474
473 478
474 475
475 476
476 477
477 478
477 483
478 479
479 481
479 554
480 491
481 482
482 554
483 484
484 485
485 486
486 487
487 488
488 489
488 493
489 490
490 492
491 502
492 493
493 494
494 495
495 496
496 497
497 498
498 499
498 511
499 500
500 501
500 511
501 503
502 513
503 504
504 505
505 506
506 507
507 508
508 509
509 510
510 511
510 487
511 512
512 514
512 549
513 524
514 515
514 516
515 516
516 517
517 518
518 549
519 520
520 521
521 539
522 523
523 525
524 535
525 526
526 527
527 528
527 539
528 529
529 530
530 531
531 532
531 549
532 533
533 534
534 536
535 546
535 582
536 537
537 538
537 528
538 554
539 540
540 541
541 542
542 543
543 544
544 545
544 554
545 547
546 558
547 548
548 549
549 550
550 551
551 552
552 553
553 554
553 69
554 555
555 556
556 559
556 561
557 570
558 569
558 572
559 560
559 561
560 570
561 562
562 563
563 564
563 567
564 565
565 566
566 567
567 568
568 570
569 572
570 571
572 573
573 574
574 575
575 576
576 577
577 578
578 579
579 581
580 591
581 469
582 583
583 584
584 585
585 586
586 587
587 588
588 589
589 590
590 592
591 602
592 593
593 594
593 519
594 595
595 596
595 18
596 597
597 598
597 351
598 599
599 600
599 32
600 601
601 603
601 344
602 3
603 604
604 605
604 42
605 606
606 607
606 185
607 608
608 609
608 185
609 610
610 611
610 185
611 612
612 4
612 26
